
  32    4
  10   10   10   10

   0   0   0   0   0   3 2 3 4 
   8  10  10  10  10   2 6 5 
   9  10  10  10  10   2 8 6 
   1  10  10  10  10   2 8 6 
   3  10  10  10  10   2 8 7 
   6  10  10  10  10   1 7 
   8  10  10  10  10   2 10 9 
   9  10  10  10  10   2 10 9 
   3  10  10  10  10   1 11 
   3  10  10  10  10   1 11 
   9  10  10  10  10   3 14 13 12 
   4  10  10  10  10   2 17 15 
   8  10  10  10  10   2 17 15 
   4  10  10  10  10   1 15 
  10  10  10  10  10   1 16 
   1  10  10  10  10   1 18 
   5  10  10  10  10   1 18 
  10  10  10  10  10   2 23 19 
  10  10  10  10  10   2 21 20 
   8  10  10  10  10   2 25 22 
   9  10  10  10  10   1 22 
   4  10  10  10  10   1 24 
   8  10  10  10  10   1 24 
   9  10  10  10  10   3 28 27 26 
   7  10  10  10  10   2 27 26 
   8  10  10  10  10   3 31 30 29 
   4  10  10  10  10   2 30 29 
   3  10  10  10  10   2 30 29 
   4  10  10  10  10   1 32
  10  10  10  10  10   1 32
   3  10  10  10  10   1 32
   0   0   0   0   0   0 
